sat

(objectives
 ((bvadd PriceProv6 (bvadd PriceProv5 (bvadd PriceProv4 (bvadd PriceProv3 (bvadd PriceProv1 PriceProv2))))) (_ bv2192 32))
)
;; statistics
(
 :cnf-variables 2960
 :cnf-literals 14559
 :cnf-clauses 6112
 :sat-checks 12
 :sat-restarts 31
 :sat-decisions 95637
 :sat-random-decisions 41
 :sat-propagations 199951157
 :sat-theory-propagations 4
 :sat-watched-clauses-visited 218005477
 :sat-binary-watched-clauses-visited 134519187
 :sat-conflicts 14257
 :sat-theory-conflicts 0
 :theory-necessary-interface-equalities 0
 :theory-extra-interface-equalities 0
 :euf-total-calls 98408
 :euf-complete-calls 18
 :euf-conflicts 0
 :euf-implications 4
 :euf-explanations 0
 :euf-egraph-nodes-created 18500
 :euf-egraph-nodes-deleted 14052
 :euf-num-asserted-equalities 1254839
 :euf-num-asserted-inequalities 995941
 :euf-num-merges 1860171
 :euf-num-merges-undone 1860171
 :euf-num-atoms-retold 3040
 :la-total-calls 98408
 :la-complete-calls 18
 :la-conflicts 0
 :la-implications 0
 :la-explanations 0
 :la-num-equalities-split 0
 :la-num-tableau-rows 0
 :la-num-tableau-variables 0
 :bv-total-calls 98408
 :bv-complete-calls 18
 :bv-conflicts 0
 :bv-implications 0
 :bv-explanations 0
 :fp-total-calls 98408
 :fp-complete-calls 18
 :fp-conflicts 0
 :fp-implications 0
 :fp-explanations 0
 :arr-total-calls 98408
 :arr-complete-calls 18
 :arr-conflicts 0
 :arr-implications 0
 :arr-explanations 0
 :arr-write-lemmas-added 0
 :arr-row-lemmas-added 0
 :arr-ext-lemmas-added 0
 :arr-const-lemmas-added 0
 :na-total-calls 98408
 :na-complete-calls 18
 :na-conflicts 0
 :na-implications 0
 :na-explanations 0
 :na-num_nonlinear_multiplications 0
 :na-num_axiom_checks 0
 :na-num_zero_lemmas 0
 :na-num_sign_lemmas 0
 :na-num_neutral_lemmas 0
 :na-num_proportionality_lemmas 0
 :na-num_bound_lemmas 0
 :na-num_tangent_lemmas 0
 :na-num_monotonicity_lemmas 0
 :na-num_sat_checks 0
 :na-axiom_check_time 0.000
 :na-sat_check_time 0.000
 :time-seconds 25.673
 :memory-mb 91.352
)
